Route #1: 33 19 9 25
Route #2: 11 24 6 32 15
Route #3: 44 28 13 31
Route #4: 7 4 27 2 41 10
Route #5: 23 37 34 17
Route #6: 46 42 40 18 48 16
Route #7: 26 1 39 8 45 20 30
Route #8: 36 47 49 43 5 29 22
Route #9: 12 21 35 38 50 14 3
Cost 10654916.000000